Examples/Integer1.lp
MAXIMIZE
    obj: 35 x1 + 48 x2 + 23 x3 + 59 x4 + 61 x5 + 53 x6 + 42 x7 + 51 x8 + 55 x9 + 22 x10
SUBJECT TO
    20 x1 + 50 x2 + 32 x3 + 15 x4 + 62 x5 + 43 x6 + 12 x7 + 55 x8 + 34 x9 + 36 x10 <= 400
    41 x1 + 21 x2 + 41 x3 + 55 x4 + 13 x5 + 43 x6 + 34 x7 + 21 x8 + 29 x9 + 27 x10 <= 700
BOUNDS
    x1  <= 5
    x2  <= 5
    x3  <= 5
    x4  <= 5
    x5  <= 5
    x6  <= 5
    x7  <= 5
    x8  <= 5
    x9  <= 5
    x10 <= 5
GENERAL
    x1 x2 x3 x4 x5 x6 x7 x8 x9 x10
END
