Examples/Integer1.mps
NAME obj
OBJSENSE MAX
ROWS
 N  OBJ
 L  R0      
 L  R1      
COLUMNS
    MARKER    'MARKER'                 'INTORG'
    x1        OBJ       35
    x1        R0        20
    x1        R1        41
    x2        OBJ       48
    x2        R0        50
    x2        R1        21
    x3        OBJ       23
    x3        R0        32
    x3        R1        41
    x4        OBJ       59
    x4        R0        15
    x4        R1        55
    x5        OBJ       61
    x5        R0        62
    x5        R1        13
    x6        OBJ       53
    x6        R0        43
    x6        R1        43
    x7        OBJ       42
    x7        R0        12
    x7        R1        34
    x8        OBJ       51
    x8        R0        55
    x8        R1        21
    x9        OBJ       55
    x9        R0        34
    x9        R1        29
    x10       OBJ       22
    x10       R0        36
    x10       R1        27
    MARKER    'MARKER'                 'INTEND'
RHS
    RHS1      R0        400
    RHS1      R1        700
BOUNDS
 UP BND1      x1        5
 UP BND1      x2        5
 UP BND1      x3        5
 UP BND1      x4        5
 UP BND1      x5        5
 UP BND1      x6        5
 UP BND1      x7        5
 UP BND1      x8        5
 UP BND1      x9        5
 UP BND1      x10       5
ENDATA
